c
c start with comments
c
p cnf 47 37
-27 12 0
45 24 0
17 10 0
-25 -8 0
44 -20 -16 -35 0
18 13 -28 47 0
-24 22 26 0
-13 -40 0
44 -28 11 -45 0
22 18 33 0
25 -41 28 0
-23 21 -2 0
-32 -43 28 -33 35 0
-9 -2 7 0
8 28 -6 0
32 5 0
-37 34 0
19 4 -41 0
-45 -49 -3 7 36 0
27 -30 0
-11 -47 -15 40 0
-5 -31 0
21 -12 -6 0
22 30 38 -14 -28 2 0
3 -18 0
-46 29 0
-47 -19 -15 25 0
-39 -45 -38 0
-39 4 25 0
-26 42 0
-43 -20 -24 -33 44 -20 0
-9 40 30 0
-6 37 -39 22 -43 0
40 46 -3 0
-42 41 0
15 9 0
23 16 0